NAME : cp-n15-kk
COMMENT : (Claudio Procida)
TYPE : CVRP
DIMENSION : 15
EDGE_WEIGHT_TYPE : EUC_2D
CAPACITY : 140
NODE_COORD_SECTION
1 50 50
2	12  3
3	0  4
4	76 6
5	87 6
6	90	0
7	85	10
8	3 42
9	19	25
10 10	 12
11 0  35
12	90	40
13 84 100
14 67 102
15 75 96
DEMAND_SECTION
1	0
2	20
3	15
4	16
5	24
6	32
7	18
8	17
9	6
10	15
11	24
12	30
13 12
14 27
15 34
DEPOT_SECTION
1
-1
EOF
